p cnf 50 15
x -2 11 16 18 19 -20 24 26 29 32 -35 38 -39 40 -43 -45 46 -49 50 0
x 3 -4 -8 -9 -14 -19 -21 -25 -28 -31 33 -35 36 38 39 -42 43 -44 48 0
x -2 4 6 8 12 -13 -14 18 -19 -21 25 -28 29 31 -32 -34 -35 -36 -37 39 41 -42 -43 -45 48 0
x -2 -5 9 -10 -11 -12 13 15 16 17 20 23 -24 -27 -29 30 31 -32 36 40 -42 43 44 49 0
x 2 -4 -5 -7 -8 9 10 12 13 -14 -15 16 -17 18 19 24 26 30 -32 -34 -36 37 -38 -39 -41 44 45 46 48 49 -50 0
x 2 -3 -10 13 17 18 -19 20 22 -23 -24 -25 27 -29 32 35 -36 37 42 43 46 -47 0
x 2 -4 6 8 -10 -12 -13 -14 -20 -21 23 24 -31 33 34 -37 40 -41 -45 -46 -50 0
x 4 -5 -6 -7 8 12 14 -16 17 -21 -23 -29 30 -31 35 36 37 -40 -43 -47 -50 0
x -1 2 3 4 11 12 -14 -17 -20 21 -22 -23 24 -25 26 27 28 -32 34 36 -37 39 40 -41 42 45 -48 50 0
x 2 -5 -6 -9 -11 -12 14 16 -21 24 26 27 -30 37 -39 40 -45 -46 48 0
x -1 4 7 11 -14 15 -16 19 -21 -25 -29 31 -34 36 -37 -38 39 40 -42 43 48 -50 0
x 1 2 7 8 12 -13 14 15 -17 -18 -21 23 24 -26 27 29 30 32 -34 -35 38 41 43 -48 -49 0
x 2 3 7 -9 10 13 14 -16 -17 18 -20 21 22 23 -24 -27 -35 36 -39 40 -43 44 -49 -50 0
x 3 8 9 10 -11 -12 -13 -17 20 -26 27 30 33 42 -44 47 50 0
x -1 3 4 -5 7 -8 10 -11 14 -15 -17 22 27 28 30 -31 34 -40 -49 -50 0
g -15